12768.0	35.0
12849.0	36.0
12930.0	39.0
14498.0	57.0
14436.0	55.0
14097.0	54.0
13588.0	46.0
11312.0	33.0
11169.0	27.0
10135.0	26.0
9330.0	23.0
9325.0	21.0
9381.0	25.0
9023.0	20.0
8836.0	19.0
8628.0	14.0
8653.0	15.0
8713.0	16.0
